'BPP     1'   
       9    
     100  
      91         1    
      88         1    
      65         1    
      55         1    
      47         1    
      41         1    
      19         1    
       5         1    
       2         2   
